Test: hole012_shuffled.cnf
Options: 
WARNING: for repeatability, setting FPU to use double precision
============================[ Problem Statistics ]=============================
|                                                                             |
|  Number of symmetries:           23                                         |
|  Number of invertingSyms:         0                                         |
|  Number of variables:           156                                         |
|  Number of clauses:             949                                         |
|  Parse time:                   0.00 s                                       |
|                                                                             |
============================[ Search Statistics ]==============================
| Conflicts |          ORIGINAL         |          LEARNT          | Progress |
|           |    Vars  Clauses Literals |    Limit  Clauses Lit/Cl |          |
===============================================================================
|       100 |     156      949     2028 |      347      114     68 |  0.004 % |
|       250 |     156      949     2028 |      382      290     65 |  0.004 % |
|       475 |     156      949     2028 |      421      314     63 |  0.004 % |
|       812 |     156      949     2028 |      463      331     53 |  0.004 % |
|      1318 |     156      949     2028 |      509      260     49 |  0.004 % |
|      2077 |     156      949     2028 |      560      404     53 |  0.004 % |
|      3216 |     156      949     2028 |      616      458     50 |  0.004 % |
|      4924 |     156      949     2028 |      678      401     48 |  0.004 % |
|      7486 |     156      949     2028 |      745      670     47 |  0.004 % |
|     11330 |     156      949     2028 |      820      523     35 |  0.004 % |
|     17096 |     156      949     2028 |      902      622     29 |  0.004 % |
===============================================================================
restarts              : 63
conflicts             : 18251          (47526 /sec)
symconflicts          : 2306           (6005 /sec)
decisions             : 30992          (0.00 % random) (80703 /sec)
propagations          : 427055         (1112053 /sec)
sympropagations       : 13521          (35209 /sec)
conflict literals     : 953952         (5.48 % deleted)
literals     : 953952         (5.48 % deleted)

HEURISTIC USAGES
random                : 0           
activity w/ lookahead : 0           
activity no lookahead : 0           
original sp           : 30992       
sym count             : 0           

Memory used           : 6.00 MB
CPU time              : 0.384024 s

UNSATISFIABLE
